(set-logic QF_UF)
(declare-fun A0 () Bool)
(declare-fun A1 () Bool)
(declare-fun A3 () Bool)
(declare-fun A4 () Bool)
(declare-fun A5 () Bool)
(declare-fun A7 () Bool)
(declare-fun A8 () Bool)
(declare-fun A10 () Bool)
(declare-fun A11 () Bool)
(declare-fun A12 () Bool)
(declare-fun A13 () Bool)
(declare-fun A14 () Bool)
(declare-fun A15 () Bool)
(declare-fun A16 () Bool)
(declare-fun A17 () Bool)
(declare-fun A18 () Bool)
(declare-fun A19 () Bool)
(declare-fun A20 () Bool)
(declare-fun A21 () Bool)
(declare-fun A22 () Bool)
(declare-fun A23 () Bool)
(declare-fun A24 () Bool)
(assert (let ((.def_0 (not A8))) (let ((.def_1 (not A22))) (let ((.def_2 (and .def_1 .def_0))) (let ((.def_3 (not A11))) (let ((.def_4 (and .def_3 .def_3))) (let ((.def_5 (and .def_4 .def_2))) (let ((.def_6 (not .def_5))) (let ((.def_7 (or A11 A4))) (let ((.def_8 (or .def_0 A17))) (let ((.def_9 (or .def_8 .def_7))) (let ((.def_10 (and .def_9 .def_6))) (let ((.def_11 (not .def_10))) (let ((.def_12 (= A11 A17))) (let ((.def_13 (not A20))) (let ((.def_14 (and A15 .def_13))) (let ((.def_15 (not .def_14))) (let ((.def_16 (and .def_15 .def_12))) (let ((.def_17 (not .def_16))) (let ((.def_18 (and .def_13 A17))) (let ((.def_19 (or A19 A16))) (let ((.def_20 (and .def_19 .def_18))) (let ((.def_21 (not .def_20))) (let ((.def_22 (or .def_21 .def_17))) (let ((.def_23 (or .def_22 .def_11))) (let ((.def_24 (not .def_23))) (let ((.def_25 (not A24))) (let ((.def_26 (not A0))) (let ((.def_27 (and .def_26 .def_25))) (let ((.def_28 (and A0 .def_3))) (let ((.def_29 (not .def_28))) (let ((.def_30 (or .def_29 .def_27))) (let ((.def_31 (not .def_30))) (let ((.def_32 (and A23 A15))) (let ((.def_33 (and A12 A18))) (let ((.def_34 (or .def_33 .def_32))) (let ((.def_35 (or .def_34 .def_31))) (let ((.def_36 (not .def_35))) (let ((.def_37 (not A14))) (let ((.def_38 (not A21))) (let ((.def_39 (= .def_38 .def_37))) (let ((.def_40 (not .def_39))) (let ((.def_41 (not A7))) (let ((.def_42 (and A5 .def_41))) (let ((.def_43 (and .def_42 .def_40))) (let ((.def_44 (not A23))) (let ((.def_45 (not A3))) (let ((.def_46 (= .def_45 .def_44))) (let ((.def_47 (not .def_46))) (let ((.def_48 (not A17))) (let ((.def_49 (or .def_48 .def_37))) (let ((.def_50 (and .def_49 .def_47))) (let ((.def_51 (not .def_50))) (let ((.def_52 (and .def_51 .def_43))) (let ((.def_53 (and .def_52 .def_36))) (let ((.def_54 (not .def_53))) (let ((.def_55 (or .def_54 .def_24))) (let ((.def_56 (and A1 .def_0))) (let ((.def_57 (or A21 A14))) (let ((.def_58 (not .def_57))) (let ((.def_59 (and .def_58 .def_56))) (let ((.def_60 (and A10 .def_3))) (let ((.def_61 (not A10))) (let ((.def_62 (or .def_61 A22))) (let ((.def_63 (and .def_62 .def_60))) (let ((.def_64 (= .def_63 .def_59))) (let ((.def_65 (not .def_64))) (let ((.def_66 (not A1))) (let ((.def_67 (or A24 .def_66))) (let ((.def_68 (not .def_67))) (let ((.def_69 (not A13))) (let ((.def_70 (and .def_13 .def_69))) (let ((.def_71 (not .def_70))) (let ((.def_72 (and .def_71 .def_68))) (let ((.def_73 (not .def_72))) (let ((.def_74 (or A15 A7))) (let ((.def_75 (not .def_74))) (let ((.def_76 (not A15))) (let ((.def_77 (and .def_61 .def_76))) (let ((.def_78 (not .def_77))) (let ((.def_79 (or .def_78 .def_75))) (let ((.def_80 (not .def_79))) (let ((.def_81 (and .def_80 .def_73))) (let ((.def_82 (not .def_81))) (let ((.def_83 (and .def_82 .def_65))) (let ((.def_84 (or A3 .def_76))) (let ((.def_85 (not .def_84))) (let ((.def_86 (or A12 .def_13))) (let ((.def_87 (not .def_86))) (let ((.def_88 (and .def_87 .def_85))) (let ((.def_89 (not .def_88))) (let ((.def_90 (= .def_38 A1))) (let ((.def_91 (not .def_90))) (let ((.def_92 (and .def_38 .def_26))) (let ((.def_93 (or .def_92 .def_91))) (let ((.def_94 (or .def_93 .def_89))) (let ((.def_95 (not .def_94))) (let ((.def_96 (not A19))) (let ((.def_97 (and A7 .def_96))) (let ((.def_98 (not .def_97))) (let ((.def_99 (not A16))) (let ((.def_100 (and .def_99 A0))) (let ((.def_101 (or .def_100 .def_98))) (let ((.def_102 (not .def_101))) (let ((.def_103 (or A5 .def_41))) (let ((.def_104 (or .def_41 .def_99))) (let ((.def_105 (or .def_104 .def_103))) (let ((.def_106 (not .def_105))) (let ((.def_107 (or .def_106 .def_102))) (let ((.def_108 (or .def_107 .def_95))) (let ((.def_109 (and .def_108 .def_83))) (let ((.def_110 (and .def_109 .def_55))) .def_110))))))))))))))))))))))))))))))))))))))))))))))))))))))))))))))))))))))))))))))))))))))))))))))))))))))))))))))))
(check-sat)
